# INITIALIZATION
clear

units metal
atom_style atomic
boundary p p s

variable gbname index STGB_210 #should be selected by user
variable structure_name index thermal_relaxed_T500_steps100000.dat #should be selected by user

variable self index surface_thermal_relax

variable path index GB_projects
variable pot_path index potentials
variable home index scripts
variable thermo_output index thermo_output
variable dump index dump
variable structure index ${path}/${gbname}/${structure_name}
variable gbpath index ${path}/${gbname}

shell mkdir ../${gbpath}/logs
log ../${gbpath}/logs/${self}.log
shell rm log.lammps

variable thermo_step_STR equal 500
variable dump_step_STR equal 500
variable rnd_seed_STR index 12345
variable zlo_mobile_STR equal 6.7
include ../${gbpath}/input.txt #T, dt, potnames, SR_nx, SR_ny, SR_nz, surface_relax_steps, [zlo_mobile_STR, thermo_step_STR, dump_step_STR, rnd_seed_STR]
variable dt equal ${dt_STR}
variable potname index ${potname_pure}

variable dump_path index ${gbpath}/${dump}/${self}
shell mkdir ../${gbpath}/${dump}
shell mkdir ../${dump_path}

timestep ${dt}

# ATOMS DEFINITION
read_data ../${structure} 
replicate ${SR_nx} ${SR_ny} ${SR_nz}
region vac block EDGE EDGE EDGE EDGE $((zlo+zhi)/2) EDGE
delete_atoms region vac compress yes
region mobile block EDGE EDGE EDGE EDGE ${zlo_mobile_STR} EDGE
group mobile region mobile
######################################
# DEFINE INTERATOMIC POTENTIAL

shell cd ../${pot_path}
include ${potname}
shell cd ../${home}

######################################
# FIXES
compute peratom all pe/atom
thermo_style custom step time temp pe
thermo ${thermo_step_STR}
shell mkdir ../${gbpath}/${thermo_output}
variable file index ../${gbpath}/${thermo_output}/${self}.txt
print "##dt = ${dt}" file ${file} screen no
print "#time; temp; pe;" append ${file} screen no
fix out all print ${thermo_step_STR} "$(time); $(temp); $(pe)" append ${file} screen no
dump 1 all cfg ${dump_step_STR} ../${dump_path}/dump_*.cfg mass type xs ys zs c_peratom
dump_modify 1 element Ag Ag
fix NVT mobile nvt temp ${T} ${T} $(100*dt) 
run ${surface_relax_steps}

shell cd ../${gbpath}
write_data surface_thermal_relaxed_T${T}_steps${surface_relax_steps}.dat
shell cd ../../${home} 

print "All done"

